SAT
1 -60 -2 -22 -51 8 32 -27 45 42 34 -72 -41 44 58 -64 20 49 -67 40 43 30 -74 -71 -28 -70 -48 37 65 -69 -46 -38 -26 -11 21 14 -25 -19 54 29 35 -63 61 -13 -31 -39 -3 -66 33 -10 -57 -7 -9 17 -59 -4 62 -5 -55 24 50 -23 68 16 -6 47 -36 -15 12 -18 -73 -75 53 56 -52 0
